3 3 2
20 1 10 0 34 1 18 2 2 0 31 1 26 0 3 1 4 0 33 2 27 1 10 0 49 2 28 1 5 0 49 2 31 0 43 2 39 0 13 2 8 
20 0 15 1 30 0 4 2 13 1 6 0 13 1 6 2 47 0 18 1 47 0 24 2 12 0 17 2 18 1 34 0 44 2 26 0 25 1 49 2 41 
20 1 40 2 41 0 45 1 45 2 15 1 30 0 47 1 8 0 4 2 36 1 35 0 25 1 43 2 16 0 37 1 35 2 41 0 21 2 26 0 7 

-------------
